77 35 78 84 86 81 25 45 54 
38 73 18 88 72 64 30 35 17 
98 38 -1 74 46 57 -1 43 79 
28 72 89 53 39 78 56 18 -1 
20 20 19 58 74 12 65 46 66 
30 93 41 52 86 18 93 53 56 
56 24 40 36 49 50 35 53 28 
-1 99 74 19 64 97 80 14 98 
26 17 16 59 69 46 -1 57 25 
